1 1344 7
2 1163 6
3 1073 6
7 1072 6
8 1024 6
20 1023 6
36 1013 6
37 1002 6
103 992 6
172 989 6
222 976 6
538 972 6
904 971 6



1 1325 7
2 1118 6
4 1066 6
9 1054 7
16 1039 6
23 1027 6
29 1022 6
32 1021 6
45 1011 6
61 1004 6
120 991 6
255 975 6



1 1373 7
2 1119 7
3 1098 6
4 1097 7
5 1052 6
16 1048 6
19 1036 6
24 1030 6
36 1027 6
37 1021 6
38 1008 6
43 997 6
100 988 6
252 982 6
574 973 6



1 1299 6
2 1121 6
4 1097 6
5 1062 6
7 1046 6
19 1032 6
24 990 6
627 987 6
730 976 6
895 972 6



1 1361 6
2 1160 6
3 1066 6
6 1054 6
14 1019 6
41 1000 6
77 969 6



